Gurobi Optimizer version 9.0.2 build v9.0.2rc0 (mac64)
Optimize a model with 80594 rows, 28922 columns and 202331 nonzeros
Model fingerprint: 0x96eddf5e
Model has 1379 quadratic constraints
Coefficient statistics:
  Matrix range     [1e-01, 7e+00]
  QMatrix range    [1e+00, 1e+00]
  Objective range  [1e+00, 1e+00]
  Bounds range     [1e+00, 1e+00]
  RHS range        [5e-01, 7e+00]
Presolve removed 12874 rows and 7063 columns
Presolve time: 0.11s
Presolved: 70478 rows, 24666 columns, 195093 nonzeros
Presolved model has 1379 second-order cone constraints
Ordering time: 1.00s
Ordering time: 1.99s

Barrier statistics:
 Dense cols : 42
 AA' NZ     : 1.756e+06
 Factor NZ  : 1.592e+07 (roughly 170 MBytes of memory)
 Factor Ops : 1.010e+10 (less than 1 second per iteration)
 Threads    : 8

                  Objective                Residual
Iter       Primal          Dual         Primal    Dual     Compl     Time
   0   2.14582006e+05 -2.05854468e+04  3.99e+02 1.00e-01  9.92e+00     2s
   1   7.35663883e+04 -4.54310375e+03  1.30e+02 7.84e-05  3.14e+00     3s
   2   2.76141228e+03 -2.51998854e+03  4.86e+00 8.62e-11  1.42e-01     3s
   3   8.09130673e+02 -1.17871584e+03  1.39e+00 2.29e-13  4.19e-02     3s
   4   3.40258436e+02 -3.60507457e+02  5.72e-01 5.40e-14  1.41e-02     3s
   5   1.19006341e+02 -9.54261039e+01  1.96e-01 3.34e-14  4.12e-03     3s
   6   5.19719886e+01 -3.44088473e+01  8.38e-02 1.86e-14  1.57e-03     4s
   7   2.77267848e+01 -1.73664512e+01  4.39e-02 1.22e-14  7.72e-04     4s
   8   1.59918041e+01 -7.85423603e+00  2.46e-02 6.74e-15  4.06e-04     4s
   9   1.17971029e+01 -4.34160971e+00  1.77e-02 5.54e-15  2.80e-04     4s
  10   8.67861215e+00 -2.40224790e+00  1.25e-02 4.58e-15  1.95e-04     4s
  11   4.27593804e+00 -1.18139708e+00  5.83e-03 3.55e-15  9.53e-05     4s
  12   2.43751579e+00 -1.78730844e-01  3.01e-03 3.55e-15  4.83e-05     5s
  13   1.91952240e+00  2.39420393e-01  2.21e-03 3.77e-15  3.46e-05     5s
  14   1.54560934e+00  4.38817602e-01  1.58e-03 3.11e-15  2.45e-05     5s
  15   1.21197991e+00  6.03879058e-01  9.00e-04 2.44e-15  1.42e-05     5s
  16   1.02039357e+00  7.02128531e-01  4.93e-04 4.30e-15  7.83e-06     5s
  17   8.92714863e-01  7.73491185e-01  2.07e-04 1.11e-14  3.22e-06     5s
  18   8.92386590e-01  7.73490713e-01  2.07e-04 1.11e-14  3.22e-06     6s
  19   8.91424586e-01  7.73489477e-01  5.49e-04 1.11e-14  3.22e-06     6s
  20   8.91424642e-01  7.73489477e-01  5.49e-04 1.11e-14  3.22e-06     6s
  21   8.85315385e-01  7.73733192e-01  5.61e-04 1.09e-14  3.05e-06     7s
  22   8.72242678e-01  7.77932636e-01  4.71e-04 2.00e-14  2.58e-06     7s
  23   8.72223526e-01  7.77933238e-01  4.71e-04 2.02e-14  2.58e-06     8s
  24   8.72223858e-01  7.77933240e-01  4.71e-04 2.02e-14  2.58e-06     8s
  25   8.72212155e-01  7.77933267e-01  4.70e-04 2.02e-14  2.58e-06     9s
  26   8.70892454e-01  7.77958727e-01  4.65e-04 2.20e-14  2.55e-06     9s
  27   8.70889949e-01  7.77959719e-01  1.71e-03 2.76e-11  2.55e-06    10s
  28   8.70875548e-01  7.77959687e-01  1.71e-03 2.76e-11  2.55e-06    11s
  29   8.70875447e-01  7.77959682e-01  1.71e-03 2.76e-11  2.55e-06    11s
  30   8.70874789e-01  7.77959682e-01  1.71e-03 2.76e-11  2.55e-06    11s
  31   8.70874791e-01  7.77959682e-01  1.71e-03 2.76e-11  2.55e-06    12s
  32   8.70874597e-01  7.77959681e-01  2.52e-03 2.76e-11  2.55e-06    12s
  33   8.70874606e-01  7.77959693e-01  3.37e-03 2.76e-11  2.55e-06    13s
  34   8.70874535e-01  7.77959693e-01  3.37e-03 2.76e-11  2.55e-06    13s
  35   8.70874929e-01  7.77959694e-01  3.37e-03 2.76e-11  2.55e-06    14s
  36   8.70874931e-01  7.77959733e-01  5.15e-03 6.39e-08  2.55e-06    15s
  37   8.70875046e-01  7.77959733e-01  5.15e-03 6.39e-08  2.55e-06    15s
  38   8.70875046e-01  7.77959733e-01  5.15e-03 6.39e-08  2.55e-06    15s
  39   8.70875046e-01  7.77959733e-01  5.15e-03 6.39e-08  2.55e-06    16s

Barrier performed 39 iterations in 15.74 seconds
Sub-optimal termination - objective 8.72223858e-01